AES/1_3_4/ssaes_r1-20_c3_rw1_e4_f0_k1-20_aes_1base_box_aes_mc_bidirectional/ExperimentMinisat_r11_k8cnf_2011-10-29-153146/Result
WARNING: for repeatability, setting FPU to use double precision
============================[ Problem Statistics ]=============================
|                                                                             |
|  Number of variables:           652                                         |
|  Number of clauses:            2820                                         |
|  Parse time:                   0.00 s                                       |
|  Eliminated clauses:           0.01 Mb                                      |
|  Simplification time:          0.00 s                                       |
|                                                                             |
=============================[ Search Statistics ]==============================
| Conflicts  |          ORIGINAL         |          LEARNT          | Progress |
|            |    Vars  Clauses Literals |    Limit  Clauses Lit/Cl |          |
================================================================================
|        100 |     440     2220     7296 |      814      100     12 | 10.430 % |
|        250 |     440     2220     7296 |      895      250     13 | 10.430 % |
|        475 |     440     2220     7296 |      984      475     13 | 10.430 % |
===============================================================================
restarts              : 6
conflicts             : 795            (24848 /sec)
decisions             : 978            (0.00 % random) (30567 /sec)
propagations          : 163574         (5112486 /sec)
conflict literals     : 10067          (40.12 % deleted)
Memory used           : 8.00 MB
CPU time              : 0.031995 s

SATISFIABLE
